Version identifier: 12.10.0.0 | 2019-11-26 | 843d4de
CPXPARAM_WorkMem                                 16384
CPXPARAM_MIP_Limits_TreeMemory                   24576
Tried aggregator 2 times.
Aggregator did 75 substitutions.
Reduced MIP has 319 rows, 360 columns, and 1492 nonzeros.
Reduced MIP has 360 binaries, 0 generals, 0 SOSs, and 0 indicators.
Presolve time = 0,00 sec. (1,45 ticks)
Found incumbent of value 5748,000000 after 0,00 sec. (2,41 ticks)
Probing time = 0,00 sec. (0,72 ticks)
Tried aggregator 1 time.
Detecting symmetries...
MIP Presolve eliminated 68 rows and 0 columns.
MIP Presolve added 136 rows and 0 columns.
Reduced MIP has 387 rows, 360 columns, and 1560 nonzeros.
Reduced MIP has 360 binaries, 0 generals, 0 SOSs, and 0 indicators.
Presolve time = 0,00 sec. (2,02 ticks)
Probing time = 0,00 sec. (0,71 ticks)
Clique table members: 1087.
MIP emphasis: balance optimality and feasibility.
MIP search method: dynamic search.
Parallel mode: deterministic, using up to 16 threads.
Root relaxation solution time = 0,00 sec. (2,12 ticks)

        Nodes                                         Cuts/
   Node  Left     Objective  IInf  Best Integer    Best Bound    ItCnt     Gap

*     0+    0                         5748,0000        0,0000           100,00%
*     0+    0                         3720,0000        0,0000           100,00%
      0     0     1437,0000   352     3720,0000     1437,0000      163   61,37%
      0     0     1452,1091   352     3720,0000     Cuts: 196      273   60,96%
      0     0     1463,7110   352     3720,0000     Cuts: 140      327   60,65%
      0     0     1464,9100   352     3720,0000     Cuts: 185      363   60,62%
      0     0     1469,1573   352     3720,0000      Cuts: 63      390   60,51%
      0     0     1469,6719   352     3720,0000       Cuts: 7      403   60,49%
      0     0     1672,9409   352     3720,0000     Cuts: 196      674   55,03%
      0     0     1681,7019   352     3720,0000      Cuts: 34      713   54,79%
*     0+    0                         3504,0000     1681,7019            52,01%
      0     0     1684,3723   352     3504,0000   ZeroHalf: 3      724   51,93%
      0     0     1687,0764   352     3504,0000   ZeroHalf: 3      745   51,85%
      0     0     1688,1965   352     3504,0000   ZeroHalf: 2      766   51,82%
      0     0     1688,9269   352     3504,0000   ZeroHalf: 2      780   51,80%
      0     0     1692,2034   352     3504,0000   ZeroHalf: 4      847   51,71%
      0     0     1693,1750   352     3504,0000   ZeroHalf: 2      894   51,68%
      0     0     1693,9673   352     3504,0000      Cuts: 86      909   51,66%
      0     0     1695,7045   352     3504,0000   ZeroHalf: 2      943   51,61%
      0     0     1696,1769   352     3504,0000       Cuts: 6      975   51,59%
      0     0     1696,5446   352     3504,0000      Cuts: 20     1000   51,58%
      0     0     1696,7491   352     3504,0000       Cuts: 2     1017   51,58%
      0     2     1696,7491   339     3504,0000     1696,7491     1017   51,58%
Elapsed time = 0,43 sec. (206,21 ticks, tree = 0,02 MB, solutions = 3)
*    23+    8                         3492,0000     1962,5249            43,80%
*   203+   69                         3468,0000     1981,5778            42,86%
*   220+  152                         3467,0000     1981,5778            42,84%
   1252   766     3166,9298   167     3467,0000     2437,0929    64519   29,71%
   3152  1731     3428,2000    42     3467,0000     2818,7824   125673   18,70%
*  4387+ 2465                         3447,0000     2883,3236            16,35%

Performing restart 1

Repeating presolve.
Tried aggregator 2 times.
MIP Presolve eliminated 39 rows and 21 columns.
MIP Presolve added 18 rows and 0 columns.
MIP Presolve modified 39 coefficients.
Aggregator did 9 substitutions.
Reduced MIP has 357 rows, 330 columns, and 1402 nonzeros.
Reduced MIP has 330 binaries, 0 generals, 0 SOSs, and 0 indicators.
Presolve time = 0,00 sec. (2,20 ticks)
Tried aggregator 1 time.
Reduced MIP has 357 rows, 330 columns, and 1402 nonzeros.
Reduced MIP has 330 binaries, 0 generals, 0 SOSs, and 0 indicators.
Presolve time = 0,00 sec. (1,34 ticks)
Represolve time = 0,02 sec. (10,63 ticks)
   4588     0     1715,3156   330     3447,0000       Cuts: 5   188482   15,77%
   4588     0     1718,0525   330     3447,0000       Cuts: 3   188504   15,77%
   4588     0     1741,4613   330     3447,0000       Cuts: 9   188560   15,77%
   4588     0     1757,5052   330     3447,0000      Cuts: 13   188636   15,77%
   4588     0     1763,3933   330     3447,0000       Cuts: 7   188694   15,77%
   4588     2     1763,3933   328     3447,0000     2903,3817   188694   15,77%
   4677    26     3010,8817   204     3447,0000     2903,3817   191606   15,77%
   6035   972     2862,8606   167     3447,0000     2903,3817   237728   15,77%
   7893  2363     2826,1102   239     3447,0000     2903,3817   280508   15,77%
   9732  4068     3050,1748   191     3447,0000     2903,3817   345625   15,77%

Performing restart 2

Repeating presolve.
Tried aggregator 1 time.
Reduced MIP has 357 rows, 330 columns, and 1402 nonzeros.
Reduced MIP has 330 binaries, 0 generals, 0 SOSs, and 0 indicators.
Presolve time = 0,00 sec. (1,04 ticks)
Tried aggregator 1 time.
Reduced MIP has 357 rows, 330 columns, and 1402 nonzeros.
Reduced MIP has 330 binaries, 0 generals, 0 SOSs, and 0 indicators.
Presolve time = 0,00 sec. (1,34 ticks)
Represolve time = 0,03 sec. (13,94 ticks)
  10222     0     1779,7144   328     3447,0000       Cuts: 9   378049   15,77%
  10222     0     1786,9190   328     3447,0000      Cuts: 10   378124   15,77%
  10222     0     1794,5318   328     3447,0000      Cuts: 18   378196   15,77%
  10222     0     1813,1882   328     3447,0000      Cuts: 13   378278   15,77%
  10222     0     1821,8078   328     3447,0000      Cuts: 11   378376   15,77%
  10222     0     1833,4051   328     3447,0000      Cuts: 15   378459   15,77%
  10222     2     1833,4051   328     3447,0000     2903,3817   378459   15,77%
  11666   887     3188,1505   128     3447,0000     2903,3817   422346   15,77%
* 12462+ 1257                         3396,0000     2903,3817            14,51%
  19051  3546        cutoff           3396,0000     3070,1459   667490    9,60%
Elapsed time = 4,98 sec. (3986,14 ticks, tree = 13,24 MB, solutions = 9)

Clique cuts applied:  24
Cover cuts applied:  609
Flow cuts applied:  18
Mixed integer rounding cuts applied:  64
Zero-half cuts applied:  10
Gomory fractional cuts applied:  42

Root node processing (before b&c):
  Real time             =    0,40 sec. (205,65 ticks)
Parallel b&c, 16 threads:
  Real time             =    5,78 sec. (4523,36 ticks)
  Sync time (average)   =    1,52 sec.
  Wait time (average)   =    0,01 sec.
                          ------------
Total (root+branch&cut) =    6,18 sec. (4729,01 ticks)
